10
0 -1 17 9 9 17 4 3 16 2
14 0 -1 18 8 12 16 -1 8 17
2 -1 0 9 20 9 8 20 8 -1
16 20 1 0 11 3 -1 17 20 14
16 14 14 16 0 1 10 8 2 15
6 5 10 -1 17 0 9 12 9 3
8 3 6 18 17 15 0 3 19 20
14 6 11 11 4 -1 9 0 17 18
-1 15 19 10 -1 13 -1 14 0 17
-1 13 8 16 5 3 1 15 18 0
